NAME          ClpDefau
ROWS
 N  OBJROW
 L  R_156_0
 L  R_156_1
 L  R_156_2
 L  R_156_3
 L  R_156_4
 L  R_156_5
 L  R_156_6
 L  R_156_7
 L  R_156_8
 L  R_156_9
 L  R_156_10
 L  R_156_11
 L  R_156_12
 L  R_156_13
 L  R_156_14
 L  R_156_15
COLUMNS
    x_0       OBJROW     -1.           R_156_0   1.          
    x_0       R_156_1   3.             R_156_3   9.          
    x_0       R_156_5   8.             R_156_6   1.          
    x_0       R_156_8   6.             R_156_10  9.          
    x_0       R_156_11  3.             R_156_12  1.          
    x_0       R_156_13  3.             R_156_14  9.          
    x_0       R_156_15  9.          
    x_1       OBJROW     -2.           R_156_0   3.          
    x_1       R_156_2   7.             R_156_3   6.          
    x_1       R_156_4   6.             R_156_5   8.          
    x_1       R_156_6   7.             R_156_7   8.          
    x_1       R_156_8   4.             R_156_9   8.          
    x_1       R_156_10  6.             R_156_11  8.          
    x_1       R_156_13  10.            R_156_14  9.          
    x_1       R_156_15  8.          
    x_2       OBJROW     -2.           R_156_0   6.          
    x_2       R_156_4   8.             R_156_5   9.          
    x_2       R_156_6   9.             R_156_7   10.         
    x_2       R_156_8   4.             R_156_9   6.          
    x_2       R_156_11  2.             R_156_12  6.          
    x_2       R_156_13  4.             R_156_15  10.         
    x_3       OBJROW     -6.           R_156_0   5.          
    x_3       R_156_1   2.             R_156_2   3.          
    x_3       R_156_4   4.             R_156_6   1.          
    x_3       R_156_7   6.             R_156_8   1.          
    x_3       R_156_9   2.             R_156_10  1.          
    x_3       R_156_11  3.             R_156_13  3.          
    x_3       R_156_14  1.             R_156_15  1.          
    x_4       OBJROW     -3.           R_156_0   4.          
    x_4       R_156_1   1.             R_156_2   10.         
    x_4       R_156_3   2.             R_156_4   8.          
    x_4       R_156_5   8.             R_156_6   10.         
    x_4       R_156_7   5.             R_156_8   10.         
    x_4       R_156_9   8.             R_156_11  6.          
    x_4       R_156_13  3.             R_156_14  7.          
    x_4       R_156_15  6.          
    x_5       OBJROW     -5.           R_156_0   6.          
    x_5       R_156_1   10.            R_156_3   9.          
    x_5       R_156_5   5.             R_156_6   3.          
    x_5       R_156_7   8.             R_156_8   9.          
    x_5       R_156_10  1.             R_156_12  8.          
    x_5       R_156_13  2.             R_156_14  10.         
    x_5       R_156_15  10.         
    x_6       OBJROW     -5.           R_156_0   5.          
    x_6       R_156_1   5.             R_156_2   1.          
    x_6       R_156_3   7.             R_156_4   2.          
    x_6       R_156_5   2.             R_156_6   2.          
    x_6       R_156_7   4.             R_156_8   1.          
    x_6       R_156_9   8.             R_156_10  9.          
    x_6       R_156_11  4.             R_156_12  4.          
    x_6       R_156_13  7.             R_156_14  1.          
    x_6       R_156_15  1.          
    x_7       OBJROW     -10.          R_156_2   2.          
    x_7       R_156_3   8.             R_156_4   9.          
    x_7       R_156_6   6.             R_156_7   6.          
    x_7       R_156_8   7.             R_156_9   5.          
    x_7       R_156_10  1.             R_156_12  8.          
    x_7       R_156_13  10.            R_156_14  1.          
    x_7       R_156_15  6.          
RHS
    RHS       R_156_0   36.            R_156_1   33.         
    RHS       R_156_2   35.            R_156_3   39.         
    RHS       R_156_4   35.            R_156_5   33.         
    RHS       R_156_6   41.            R_156_7   37.         
    RHS       R_156_8   38.            R_156_9   39.         
    RHS       R_156_10  34.            R_156_11  37.         
    RHS       R_156_12  38.            R_156_13  33.         
    RHS       R_156_14  36.            R_156_15  33.         
BOUNDS
 UI BOUND     x_0       10.         
 UI BOUND     x_1       10.         
 UI BOUND     x_2       10.         
 UI BOUND     x_3       10.         
 UI BOUND     x_4       10.         
 UI BOUND     x_5       10.         
 UI BOUND     x_6       10.         
 UI BOUND     x_7       10.         
ENDATA
